c colouring generated by benchmark framework
p edge 450 17343
v 1 7
v 2 11
v 3 24
v 4 5
v 5 8
v 6 2
v 7 19
v 8 25
v 9 16
v 10 14
v 11 14
v 12 15
v 13 8
v 14 29
v 15 0
v 16 23
v 17 12
v 18 2
v 19 24
v 20 6
v 21 30
v 22 7
v 23 23
v 24 2
v 25 0
v 26 15
v 27 13
v 28 3
v 29 3
v 30 23
v 31 18
v 32 0
v 33 12
v 34 1
v 35 18
v 36 15
v 37 23
v 38 24
v 39 22
v 40 0
v 41 3
v 42 15
v 43 7
v 44 7
v 45 1
v 46 7
v 47 8
v 48 11
v 49 27
v 50 17
v 51 21
v 52 19
v 53 0
v 54 0
v 55 8
v 56 6
v 57 16
v 58 4
v 59 12
v 60 21
v 61 12
v 62 11
v 63 20
v 64 20
v 65 25
v 66 24
v 67 20
v 68 12
v 69 1
v 70 21
v 71 2
v 72 4
v 73 17
v 74 28
v 75 2
v 76 13
v 77 10
v 78 19
v 79 21
v 80 8
v 81 16
v 82 14
v 83 14
v 84 7
v 85 2
v 86 2
v 87 9
v 88 23
v 89 0
v 90 15
v 91 15
v 92 8
v 93 3
v 94 6
v 95 8
v 96 9
v 97 6
v 98 6
v 99 18
v 100 14
v 101 23
v 102 18
v 103 5
v 104 30
v 105 31
v 106 17
v 107 14
v 108 17
v 109 0
v 110 10
v 111 28
v 112 6
v 113 16
v 114 17
v 115 7
v 116 22
v 117 20
v 118 17
v 119 22
v 120 19
v 121 12
v 122 20
v 123 3
v 124 17
v 125 20
v 126 27
v 127 10
v 128 22
v 129 15
v 130 25
v 131 9
v 132 5
v 133 0
v 134 12
v 135 19
v 136 14
v 137 8
v 138 11
v 139 21
v 140 3
v 141 16
v 142 8
v 143 7
v 144 22
v 145 29
v 146 18
v 147 5
v 148 19
v 149 1
v 150 3
v 151 14
v 152 12
v 153 1
v 154 22
v 155 9
v 156 16
v 157 5
v 158 26
v 159 25
v 160 18
v 161 10
v 162 15
v 163 0
v 164 4
v 165 17
v 166 16
v 167 10
v 168 0
v 169 8
v 170 8
v 171 9
v 172 26
v 173 14
v 174 7
v 175 26
v 176 28
v 177 27
v 178 17
v 179 5
v 180 27
v 181 31
v 182 12
v 183 19
v 184 25
v 185 18
v 186 10
v 187 7
v 188 24
v 189 10
v 190 21
v 191 4
v 192 7
v 193 4
v 194 5
v 195 15
v 196 11
v 197 12
v 198 23
v 199 0
v 200 1
v 201 25
v 202 17
v 203 3
v 204 16
v 205 27
v 206 22
v 207 12
v 208 15
v 209 1
v 210 6
v 211 30
v 212 10
v 213 6
v 214 28
v 215 23
v 216 23
v 217 26
v 218 10
v 219 5
v 220 8
v 221 0
v 222 22
v 223 28
v 224 8
v 225 17
v 226 20
v 227 25
v 228 30
v 229 20
v 230 6
v 231 26
v 232 10
v 233 2
v 234 7
v 235 31
v 236 9
v 237 5
v 238 4
v 239 21
v 240 26
v 241 0
v 242 13
v 243 29
v 244 5
v 245 4
v 246 2
v 247 12
v 248 11
v 249 2
v 250 6
v 251 12
v 252 1
v 253 28
v 254 27
v 255 20
v 256 11
v 257 21
v 258 0
v 259 22
v 260 3
v 261 15
v 262 7
v 263 6
v 264 4
v 265 5
v 266 15
v 267 29
v 268 5
v 269 4
v 270 24
v 271 3
v 272 20
v 273 1
v 274 11
v 275 16
v 276 1
v 277 9
v 278 24
v 279 25
v 280 12
v 281 1
v 282 9
v 283 1
v 284 24
v 285 6
v 286 21
v 287 6
v 288 26
v 289 20
v 290 9
v 291 26
v 292 15
v 293 11
v 294 8
v 295 2
v 296 2
v 297 25
v 298 13
v 299 21
v 300 14
v 301 3
v 302 17
v 303 1
v 304 18
v 305 20
v 306 16
v 307 13
v 308 30
v 309 29
v 310 27
v 311 21
v 312 24
v 313 14
v 314 18
v 315 0
v 316 29
v 317 3
v 318 19
v 319 1
v 320 23
v 321 2
v 322 19
v 323 0
v 324 2
v 325 5
v 326 2
v 327 23
v 328 5
v 329 25
v 330 26
v 331 11
v 332 27
v 333 25
v 334 22
v 335 12
v 336 2
v 337 1
v 338 4
v 339 2
v 340 13
v 341 1
v 342 4
v 343 29
v 344 5
v 345 29
v 346 24
v 347 5
v 348 24
v 349 17
v 350 11
v 351 11
v 352 11
v 353 1
v 354 12
v 355 26
v 356 16
v 357 12
v 358 11
v 359 19
v 360 8
v 361 6
v 362 19
v 363 6
v 364 22
v 365 31
v 366 19
v 367 5
v 368 22
v 369 4
v 370 15
v 371 26
v 372 15
v 373 21
v 374 8
v 375 16
v 376 17
v 377 28
v 378 22
v 379 28
v 380 16
v 381 26
v 382 16
v 383 9
v 384 19
v 385 19
v 386 27
v 387 6
v 388 8
v 389 28
v 390 9
v 391 13
v 392 24
v 393 3
v 394 5
v 395 10
v 396 14
v 397 10
v 398 9
v 399 0
v 400 28
v 401 0
v 402 17
v 403 3
v 404 9
v 405 13
v 406 17
v 407 10
v 408 4
v 409 26
v 410 4
v 411 27
v 412 4
v 413 11
v 414 10
v 415 5
v 416 10
v 417 27
v 418 18
v 419 13
v 420 2
v 421 4
v 422 13
v 423 25
v 424 25
v 425 13
v 426 29
v 427 3
v 428 9
v 429 4
v 430 7
v 431 13
v 432 4
v 433 3
v 434 4
v 435 14
v 436 13
v 437 9
v 438 1
v 439 18
v 440 18
v 441 6
v 442 20
v 443 2
v 444 31
v 445 14
v 446 2
v 447 15
v 448 7
v 449 24
v 450 2
